words_hard_train/300.qaiger
aag 107 24 0 1 83
2
4
8
12
14
18
30
32
36
52
54
58
70
72
76
88
90
94
110
122
152
156
178
182
214
6 3 5
10 7 8
16 13 15
20 16 19
22 17 18
24 21 23
26 10 24
28 27 23
34 31 33
38 34 37
40 35 36
42 39 41
44 28 43
46 29 42
48 45 47
50 47 41
56 53 55
60 56 59
62 57 58
64 61 63
66 51 64
68 67 63
74 71 73
78 74 77
80 75 76
82 79 81
84 69 82
86 85 81
92 89 91
96 92 95
98 93 94
100 97 99
102 86 101
104 87 100
106 103 105
108 49 106
112 49 111
114 113 107
116 109 115
118 11 25
120 119 27
124 120 123
126 6 9
128 127 11
130 129 91
132 128 90
134 131 133
136 68 83
138 137 85
140 50 65
142 141 67
144 139 142
146 135 145
148 125 146
150 105 99
154 153 123
158 154 157
160 155 156
162 159 161
164 150 163
166 151 162
168 165 167
170 107 169
172 171 111
174 148 173
176 167 161
180 179 111
184 181 182
186 180 183
188 185 187
190 177 188
192 176 189
194 191 193
196 169 194
198 174 197
200 116 198
202 138 111
204 121 122
206 203 205
208 194 142
210 209 110
212 206 211
214 200 212
i0 1 x2[0]
i1 1 x1[0]
i2 2 y1[0]
i3 1 x2[1]
i4 1 x1[1]
i5 2 y1[1]
i6 1 x2[2]
i7 1 x1[2]
i8 2 y1[2]
i9 1 x2[3]
i10 1 x1[3]
i11 2 y1[3]
i12 1 x2[4]
i13 1 x1[4]
i14 2 y1[4]
i15 1 x2[5]
i16 1 x1[5]
i17 2 y1[5]
i18 1 x1[7]
i19 1 x1[6]
i20 1 x2[6]
i21 2 y1[6]
i22 1 x2[7]
i23 2 y1[7]
o0 bool[0]
c
simplified
  ==
    add
      2 y1
      or
        1 x1
        1 x2
    >> 5
      1 x1
