words_hard_train/300.qaiger.qdimacs
p cnf 107 250
a 1 2 35 36 6 7 44 45 76 15 16 55 89 26 27 61 0
e 3 4 5 8 9 10 11 12 13 14 17 18 19 20 21 22 23 24 25 28 29 30 31 32 33 34 37 38 39 40 41 42 43 46 47 48 49 50 51 52 53 54 56 57 58 59 60 62 63 64 65 66 67 68 69 70 71 72 73 74 75 77 78 79 80 81 82 83 84 85 86 87 88 90 91 92 93 94 95 96 97 98 99 100 101 102 103 104 105 106 107 0
1 2 3 0
-1 -3 0
-2 -3 0
3 -4 5 0
-3 -5 0
4 -5 0
6 7 8 0
-6 -8 0
-7 -8 0
-8 9 10 0
8 -10 0
-9 -10 0
8 -9 11 0
-8 -11 0
9 -11 0
10 11 12 0
-10 -12 0
-11 -12 0
-5 -12 13 0
5 -13 0
12 -13 0
13 11 14 0
-13 -14 0
-11 -14 0
15 16 17 0
-15 -17 0
-16 -17 0
-17 18 19 0
17 -19 0
-18 -19 0
17 -18 20 0
-17 -20 0
18 -20 0
19 20 21 0
-19 -21 0
-20 -21 0
-14 21 22 0
14 -22 0
-21 -22 0
14 -21 23 0
-14 -23 0
21 -23 0
22 23 24 0
-22 -24 0
-23 -24 0
23 20 25 0
-23 -25 0
-20 -25 0
26 27 28 0
-26 -28 0
-27 -28 0
-28 29 30 0
28 -30 0
-29 -30 0
28 -29 31 0
-28 -31 0
29 -31 0
30 31 32 0
-30 -32 0
-31 -32 0
25 -32 33 0
-25 -33 0
32 -33 0
33 31 34 0
-33 -34 0
-31 -34 0
35 36 37 0
-35 -37 0
-36 -37 0
-37 38 39 0
37 -39 0
-38 -39 0
37 -38 40 0
-37 -40 0
38 -40 0
39 40 41 0
-39 -41 0
-40 -41 0
34 -41 42 0
-34 -42 0
41 -42 0
42 40 43 0
-42 -43 0
-40 -43 0
44 45 46 0
-44 -46 0
-45 -46 0
-46 47 48 0
46 -48 0
-47 -48 0
46 -47 49 0
-46 -49 0
47 -49 0
48 49 50 0
-48 -50 0
-49 -50 0
-43 50 51 0
43 -51 0
-50 -51 0
43 -50 52 0
-43 -52 0
50 -52 0
51 52 53 0
-51 -53 0
-52 -53 0
24 -53 54 0
-24 -54 0
53 -54 0
24 55 56 0
-24 -56 0
-55 -56 0
56 53 57 0
-56 -57 0
-53 -57 0
54 57 58 0
-54 -58 0
-57 -58 0
5 12 59 0
-5 -59 0
-12 -59 0
59 13 60 0
-59 -60 0
-13 -60 0
-60 61 62 0
60 -62 0
-61 -62 0
-3 4 63 0
3 -63 0
-4 -63 0
63 5 64 0
-63 -64 0
-5 -64 0
64 45 65 0
-64 -65 0
-45 -65 0
-64 -45 66 0
64 -66 0
45 -66 0
65 66 67 0
-65 -67 0
-66 -67 0
-34 41 68 0
34 -68 0
-41 -68 0
68 42 69 0
-68 -69 0
-42 -69 0
-25 32 70 0
25 -70 0
-32 -70 0
70 33 71 0
-70 -71 0
-33 -71 0
69 -71 72 0
-69 -72 0
71 -72 0
67 72 73 0
-67 -73 0
-72 -73 0
62 -73 74 0
-62 -74 0
73 -74 0
52 49 75 0
-52 -75 0
-49 -75 0
76 61 77 0
-76 -77 0
-61 -77 0
-77 78 79 0
77 -79 0
-78 -79 0
77 -78 80 0
-77 -80 0
78 -80 0
79 80 81 0
-79 -81 0
-80 -81 0
-75 81 82 0
75 -82 0
-81 -82 0
75 -81 83 0
-75 -83 0
81 -83 0
82 83 84 0
-82 -84 0
-83 -84 0
53 84 85 0
-53 -85 0
-84 -85 0
85 55 86 0
-85 -86 0
-55 -86 0
-74 86 87 0
74 -87 0
-86 -87 0
83 80 88 0
-83 -88 0
-80 -88 0
89 55 90 0
-89 -90 0
-55 -90 0
90 -91 92 0
-90 -92 0
91 -92 0
-90 91 93 0
90 -93 0
-91 -93 0
92 93 94 0
-92 -94 0
-93 -94 0
88 -94 95 0
-88 -95 0
94 -95 0
-88 94 96 0
88 -96 0
-94 -96 0
95 96 97 0
-95 -97 0
-96 -97 0
84 -97 98 0
-84 -98 0
97 -98 0
-87 98 99 0
87 -99 0
-98 -99 0
-58 -99 100 0
58 -100 0
99 -100 0
-69 55 101 0
69 -101 0
-55 -101 0
60 -61 102 0
-60 -102 0
61 -102 0
101 102 103 0
-101 -103 0
-102 -103 0
-97 -71 104 0
97 -104 0
71 -104 0
104 -55 105 0
-104 -105 0
55 -105 0
-103 105 106 0
103 -106 0
-105 -106 0
-100 -106 107 0
100 -107 0
106 -107 0
107 0
